DIMENSION: 225
1
200
3
198
4
197
195
43
44
46
194
218
45
48
193
196
192
224
199
50
52
53
54
55
56
57
51
207
49
133
191
205
190
225
58
59
2
47
189
27
188
117
187
118
186
119
185
184
120
175
121
122
123
124
109
107
105
103
104
220
106
108
67
69
68
66
65
110
111
112
64
113
114
63
62
61
60
116
223
115
182
171
170
169
172
173
181
174
180
179
176
178
177
145
147
146
148
149
150
168
125
212
214
151
152
153
155
154
156
157
144
143
201
142
141
159
160
161
162
213
158
163
140
139
138
137
136
183
135
134
215
164
165
166
167
126
127
128
222
129
132
131
211
130
88
89
90
91
92
87
210
86
85
84
83
82
93
94
221
81
80
209
95
96
97
79
78
77
28
204
29
30
202
206
217
219
216
98
99
101
102
100
73
71
70
72
75
74
76
31
32
35
33
34
26
25
208
24
36
37
38
12
13
23
14
16
15
22
21
17
20
203
19
18
11
39
40
10
9
8
41
42
7
6
5
